(declare-const i_init Int)
(declare-const j_init Int)
(declare-const k_init Int)
(declare-const m_init Int)
(declare-const N_init Int)
(declare-const n_init Int)
(declare-const c_0 Int)
(declare-const c_1 Int)
(declare-const c_2 Int)
(declare-const c_3 Int)
(declare-const c_4 Int)
(declare-const c_5 Int)
(declare-const c_6 Int)
(declare-const c_7 Int)
(declare-const c_8 Int)
(declare-const c_9 Int)
(declare-const c_10 Int)
(declare-const c_11 Int)
(declare-const c_12 Int)
(declare-const c_13 Int)
(declare-const c_14 Int)
(declare-const c_15 Int)
(declare-const c_16 Int)
(declare-const c_17 Int)
(declare-const c_18 Int)
(declare-const c_19 Int)
(declare-const c_20 Int)
(declare-const c_21 Int)
(declare-const c_22 Int)
(declare-const c_23 Int)
(declare-const c_24 Int)
(declare-const c_25 Int)
(declare-const c_26 Int)
(declare-const c_27 Int)
(declare-const c_28 Int)
(declare-const c_29 Int)
(declare-const c_30 Int)
(declare-const c_31 Int)
(declare-const c_32 Int)
(declare-const c_33 Int)
(declare-const c_34 Int)
(declare-const c_35 Int)
(declare-const c_36 Int)
(declare-const c_37 Int)
(declare-const c_38 Int)
(declare-const c_39 Int)
(declare-const c_40 Int)
(declare-const c_41 Int)
(declare-const c_42 Int)
(declare-const c_43 Int)
(declare-const c_44 Int)
(declare-const c_45 Int)
(declare-const c_46 Int)
(declare-const c_47 Int)
(declare-const c_48 Int)
(declare-const c_49 Int)
(declare-const c_50 Int)
(declare-const c_51 Int)
(declare-const c_52 Int)
(declare-const c_53 Int)
(declare-const c_54 Int)
(declare-const c_55 Int)
(declare-const c_56 Int)
(declare-const c_57 Int)
(declare-const c_58 Int)
(declare-const c_59 Int)
(declare-const c_60 Int)
(declare-const c_61 Int)
(declare-const c_62 Int)
(declare-const c_63 Int)
(declare-const c_64 Int)
(declare-const c_65 Int)
(declare-const c_66 Int)
(declare-const c_67 Int)
(declare-const c_68 Int)
(declare-const c_69 Int)
(declare-const c_70 Int)
(declare-const c_71 Int)
(declare-const c_72 Int)
(declare-const c_73 Int)
(declare-const c_74 Int)
(declare-const c_75 Int)
(declare-const c_76 Int)
(declare-const c_77 Int)
(declare-const c_78 Int)
(declare-const c_79 Int)
(declare-const c_80 Int)
(declare-const c_81 Int)
(declare-const c_82 Int)
(declare-const c_83 Int)
(declare-const c_84 Int)
(declare-const c_85 Int)
(declare-const c_86 Int)
(declare-const c_87 Int)
(declare-const c_88 Int)
(declare-const c_89 Int)
(declare-const c_90 Int)
(assert (< c_0 0))
(assert (and (>= (+ (* 1 c_1 ) (* (- 1) i_init ) ) 0) (>= (+ (* (- 1) c_1 ) (* 1 i_init ) ) 0) (>= (+ (* 1 c_2 ) (* (- 1) j_init ) ) 0) (>= (+ (* (- 1) c_2 ) (* 1 j_init ) ) 0) (>= (+ (* 1 c_3 ) (* (- 1) k_init ) ) 0) (>= (+ (* (- 1) c_3 ) (* 1 k_init ) ) 0) (>= (+ (* 1 c_4 ) (* (- 1) m_init ) ) 0) (>= (+ (* (- 1) c_4 ) (* 1 m_init ) ) 0) (>= (+ (* (- 1) N_init ) (* 1 c_5 ) ) 0) (>= (+ (* 1 N_init ) (* (- 1) c_5 ) ) 0) (>= (+ (* 1 c_6 ) (* (- 1) n_init ) ) 0) (>= (+ (* (- 1) c_6 ) (* 1 n_init ) ) 0) ))
(assert (forall ((i Real) (j Real) (k Real) (m Real) (N Real) (n Real) ) (=> (and (>= (+ (* (- 1) 1) (* (- 1) N c_64 ) (* (- 1) c_63 ) (* (- 1) c_66 j ) (* (- 1) c_67 k ) (* (- 1) c_68 m ) (* (- 1) c_69 n ) ) 0) (>= (* 1 n ) 0) (>= (* 1 m ) 0) (>= (* 1 N ) 0) (>= (+ (* 1 c_1 ) (* (- 1) i ) ) 0) (>= (+ (* (- 1) c_1 ) (* 1 i ) ) 0) (>= (+ (* 1 c_2 ) (* (- 1) j ) ) 0) (>= (+ (* (- 1) c_2 ) (* 1 j ) ) 0) (>= (+ (* 1 c_3 ) (* (- 1) k ) ) 0) (>= (+ (* (- 1) c_3 ) (* 1 k ) ) 0) (>= (+ (* 1 c_4 ) (* (- 1) m ) ) 0) (>= (+ (* (- 1) c_4 ) (* 1 m ) ) 0) (>= (+ (* (- 1) N ) (* 1 c_5 ) ) 0) (>= (+ (* 1 N ) (* (- 1) c_5 ) ) 0) (>= (+ (* 1 c_6 ) (* (- 1) n ) ) 0) (>= (+ (* (- 1) c_6 ) (* 1 n ) ) 0) ) (>= (+ (* 1 N c_78 ) (* 1 c_77 ) (* 1 c_80 j ) (* 1 c_81 k ) (* 1 c_82 m ) (* 1 c_83 n ) ) 0) )))
(assert (forall ((i Real) (j Real) (k Real) (m Real) (N Real) (n Real) ) (=> (and (>= (+ (* (- 1) 1) (* (- 1) N c_64 ) (* (- 1) c_63 ) (* (- 1) c_66 j ) (* (- 1) c_67 k ) (* (- 1) c_68 m ) (* (- 1) c_69 n ) ) 0) (>= (* 1 n ) 0) (>= (* 1 m ) 0) (>= (* 1 N ) 0) (>= (+ (* 1 c_1 ) (* (- 1) i ) ) 0) (>= (+ (* (- 1) c_1 ) (* 1 i ) ) 0) (>= (+ (* 1 c_2 ) (* (- 1) j ) ) 0) (>= (+ (* (- 1) c_2 ) (* 1 j ) ) 0) (>= (+ (* 1 c_3 ) (* (- 1) k ) ) 0) (>= (+ (* (- 1) c_3 ) (* 1 k ) ) 0) (>= (+ (* 1 c_4 ) (* (- 1) m ) ) 0) (>= (+ (* (- 1) c_4 ) (* 1 m ) ) 0) (>= (+ (* (- 1) N ) (* 1 c_5 ) ) 0) (>= (+ (* 1 N ) (* (- 1) c_5 ) ) 0) (>= (+ (* 1 c_6 ) (* (- 1) n ) ) 0) (>= (+ (* (- 1) c_6 ) (* 1 n ) ) 0) ) (>= (+ (* 1 N c_85 ) (* 1 c_84 ) (* 1 c_87 j ) (* 1 c_88 k ) (* 1 c_89 m ) (* 1 c_90 n ) ) 0) )))
(assert (forall ((i Real) (j Real) (k Real) (m Real) (N Real) (n Real) ) (=> (and (>= (+ (* (- 1) 1) (* (- 1) N c_71 ) (* (- 1) c_70 ) (* (- 1) c_73 j ) (* (- 1) c_74 k ) (* (- 1) c_75 m ) (* (- 1) c_76 n ) ) 0) (>= (* 1 n ) 0) (>= (* 1 m ) 0) (>= (* 1 N ) 0) (>= (+ (* 1 c_1 ) (* (- 1) i ) ) 0) (>= (+ (* (- 1) c_1 ) (* 1 i ) ) 0) (>= (+ (* 1 c_2 ) (* (- 1) j ) ) 0) (>= (+ (* (- 1) c_2 ) (* 1 j ) ) 0) (>= (+ (* 1 c_3 ) (* (- 1) k ) ) 0) (>= (+ (* (- 1) c_3 ) (* 1 k ) ) 0) (>= (+ (* 1 c_4 ) (* (- 1) m ) ) 0) (>= (+ (* (- 1) c_4 ) (* 1 m ) ) 0) (>= (+ (* (- 1) N ) (* 1 c_5 ) ) 0) (>= (+ (* 1 N ) (* (- 1) c_5 ) ) 0) (>= (+ (* 1 c_6 ) (* (- 1) n ) ) 0) (>= (+ (* (- 1) c_6 ) (* 1 n ) ) 0) ) (>= (+ (* 1 N c_78 ) (* 1 c_77 ) (* 1 c_80 j ) (* 1 c_81 k ) (* 1 c_82 m ) (* 1 c_83 n ) ) 0) )))
(assert (forall ((i Real) (j Real) (k Real) (m Real) (N Real) (n Real) ) (=> (and (>= (+ (* (- 1) 1) (* (- 1) N c_71 ) (* (- 1) c_70 ) (* (- 1) c_73 j ) (* (- 1) c_74 k ) (* (- 1) c_75 m ) (* (- 1) c_76 n ) ) 0) (>= (* 1 n ) 0) (>= (* 1 m ) 0) (>= (* 1 N ) 0) (>= (+ (* 1 c_1 ) (* (- 1) i ) ) 0) (>= (+ (* (- 1) c_1 ) (* 1 i ) ) 0) (>= (+ (* 1 c_2 ) (* (- 1) j ) ) 0) (>= (+ (* (- 1) c_2 ) (* 1 j ) ) 0) (>= (+ (* 1 c_3 ) (* (- 1) k ) ) 0) (>= (+ (* (- 1) c_3 ) (* 1 k ) ) 0) (>= (+ (* 1 c_4 ) (* (- 1) m ) ) 0) (>= (+ (* (- 1) c_4 ) (* 1 m ) ) 0) (>= (+ (* (- 1) N ) (* 1 c_5 ) ) 0) (>= (+ (* 1 N ) (* (- 1) c_5 ) ) 0) (>= (+ (* 1 c_6 ) (* (- 1) n ) ) 0) (>= (+ (* (- 1) c_6 ) (* 1 n ) ) 0) ) (>= (+ (* 1 N c_85 ) (* 1 c_84 ) (* 1 c_87 j ) (* 1 c_88 k ) (* 1 c_89 m ) (* 1 c_90 n ) ) 0) )))
(assert (forall ((i Real) (j Real) (k Real) (m Real) (N Real) (n Real) ) (=> (and (>= (+ (* (- 1) 1) (* (- 1) n ) ) 0) (>= (+ (* 1 c_1 ) (* (- 1) i ) ) 0) (>= (+ (* (- 1) c_1 ) (* 1 i ) ) 0) (>= (+ (* 1 c_2 ) (* (- 1) j ) ) 0) (>= (+ (* (- 1) c_2 ) (* 1 j ) ) 0) (>= (+ (* 1 c_3 ) (* (- 1) k ) ) 0) (>= (+ (* (- 1) c_3 ) (* 1 k ) ) 0) (>= (+ (* 1 c_4 ) (* (- 1) m ) ) 0) (>= (+ (* (- 1) c_4 ) (* 1 m ) ) 0) (>= (+ (* (- 1) N ) (* 1 c_5 ) ) 0) (>= (+ (* 1 N ) (* (- 1) c_5 ) ) 0) (>= (+ (* 1 c_6 ) (* (- 1) n ) ) 0) (>= (+ (* (- 1) c_6 ) (* 1 n ) ) 0) ) (>= (* 1 c_0 ) 0) )))
(assert (forall ((i Real) (j Real) (k Real) (m Real) (N Real) (n Real) ) (=> (and (>= (+ (* (- 1) 1) (* (- 1) m ) ) 0) (>= (+ (* 1 c_1 ) (* (- 1) i ) ) 0) (>= (+ (* (- 1) c_1 ) (* 1 i ) ) 0) (>= (+ (* 1 c_2 ) (* (- 1) j ) ) 0) (>= (+ (* (- 1) c_2 ) (* 1 j ) ) 0) (>= (+ (* 1 c_3 ) (* (- 1) k ) ) 0) (>= (+ (* (- 1) c_3 ) (* 1 k ) ) 0) (>= (+ (* 1 c_4 ) (* (- 1) m ) ) 0) (>= (+ (* (- 1) c_4 ) (* 1 m ) ) 0) (>= (+ (* (- 1) N ) (* 1 c_5 ) ) 0) (>= (+ (* 1 N ) (* (- 1) c_5 ) ) 0) (>= (+ (* 1 c_6 ) (* (- 1) n ) ) 0) (>= (+ (* (- 1) c_6 ) (* 1 n ) ) 0) ) (>= (* 1 c_0 ) 0) )))
(assert (forall ((i Real) (j Real) (k Real) (m Real) (N Real) (n Real) ) (=> (and (>= (+ (* (- 1) 1) (* (- 1) N ) ) 0) (>= (+ (* 1 c_1 ) (* (- 1) i ) ) 0) (>= (+ (* (- 1) c_1 ) (* 1 i ) ) 0) (>= (+ (* 1 c_2 ) (* (- 1) j ) ) 0) (>= (+ (* (- 1) c_2 ) (* 1 j ) ) 0) (>= (+ (* 1 c_3 ) (* (- 1) k ) ) 0) (>= (+ (* (- 1) c_3 ) (* 1 k ) ) 0) (>= (+ (* 1 c_4 ) (* (- 1) m ) ) 0) (>= (+ (* (- 1) c_4 ) (* 1 m ) ) 0) (>= (+ (* (- 1) N ) (* 1 c_5 ) ) 0) (>= (+ (* 1 N ) (* (- 1) c_5 ) ) 0) (>= (+ (* 1 c_6 ) (* (- 1) n ) ) 0) (>= (+ (* (- 1) c_6 ) (* 1 n ) ) 0) ) (>= (* 1 c_0 ) 0) )))
(assert (forall ((i Real) (j Real) (k Real) (m Real) (N Real) (n Real) ) (=> (and (>= (+ (* (- 1) 1) (* (- 1) N c_8 ) (* (- 1) c_10 j ) (* (- 1) c_11 ) (* (- 1) c_11 k ) (* (- 1) c_12 m ) (* (- 1) c_13 n ) (* (- 1) c_7 ) (* (- 1) c_9 i ) ) 0) (>= (+ (* (- 1) 1) (* 1 N ) (* (- 1) k ) ) 0) (>= (+ (* 1 N c_8 ) (* 1 c_10 j ) (* 1 c_11 k ) (* 1 c_12 m ) (* 1 c_13 n ) (* 1 c_7 ) (* 1 c_9 i ) ) 0) (>= (+ (* 1 N c_15 ) (* 1 c_14 ) (* 1 c_16 i ) (* 1 c_17 j ) (* 1 c_18 k ) (* 1 c_19 m ) (* 1 c_20 n ) ) 0) ) (>= (+ (* 1 N c_22 ) (* 1 c_21 ) (* 1 c_23 i ) (* 1 c_24 j ) (* 1 c_25 ) (* 1 c_25 k ) (* 1 c_26 m ) (* 1 c_27 n ) ) 0) )))
(assert (forall ((i Real) (j Real) (k Real) (m Real) (N Real) (n Real) ) (=> (and (>= (+ (* (- 1) 1) (* (- 1) N c_8 ) (* (- 1) c_10 j ) (* (- 1) c_11 ) (* (- 1) c_11 k ) (* (- 1) c_12 m ) (* (- 1) c_13 n ) (* (- 1) c_7 ) (* (- 1) c_9 i ) ) 0) (>= (+ (* (- 1) 1) (* 1 N ) (* (- 1) k ) ) 0) (>= (+ (* 1 N c_8 ) (* 1 c_10 j ) (* 1 c_11 k ) (* 1 c_12 m ) (* 1 c_13 n ) (* 1 c_7 ) (* 1 c_9 i ) ) 0) (>= (+ (* 1 N c_15 ) (* 1 c_14 ) (* 1 c_16 i ) (* 1 c_17 j ) (* 1 c_18 k ) (* 1 c_19 m ) (* 1 c_20 n ) ) 0) ) (>= (+ (* 1 N c_29 ) (* 1 c_28 ) (* 1 c_30 i ) (* 1 c_31 j ) (* 1 c_32 ) (* 1 c_32 k ) (* 1 c_33 m ) (* 1 c_34 n ) ) 0) )))
(assert (forall ((i Real) (j Real) (k Real) (m Real) (N Real) (n Real) ) (=> (and (>= (+ (* (- 1) 1) (* (- 1) N c_15 ) (* (- 1) c_14 ) (* (- 1) c_16 i ) (* (- 1) c_17 j ) (* (- 1) c_18 ) (* (- 1) c_18 k ) (* (- 1) c_19 m ) (* (- 1) c_20 n ) ) 0) (>= (+ (* (- 1) 1) (* 1 N ) (* (- 1) k ) ) 0) (>= (+ (* 1 N c_8 ) (* 1 c_10 j ) (* 1 c_11 k ) (* 1 c_12 m ) (* 1 c_13 n ) (* 1 c_7 ) (* 1 c_9 i ) ) 0) (>= (+ (* 1 N c_15 ) (* 1 c_14 ) (* 1 c_16 i ) (* 1 c_17 j ) (* 1 c_18 k ) (* 1 c_19 m ) (* 1 c_20 n ) ) 0) ) (>= (+ (* 1 N c_22 ) (* 1 c_21 ) (* 1 c_23 i ) (* 1 c_24 j ) (* 1 c_25 ) (* 1 c_25 k ) (* 1 c_26 m ) (* 1 c_27 n ) ) 0) )))
(assert (forall ((i Real) (j Real) (k Real) (m Real) (N Real) (n Real) ) (=> (and (>= (+ (* (- 1) 1) (* (- 1) N c_15 ) (* (- 1) c_14 ) (* (- 1) c_16 i ) (* (- 1) c_17 j ) (* (- 1) c_18 ) (* (- 1) c_18 k ) (* (- 1) c_19 m ) (* (- 1) c_20 n ) ) 0) (>= (+ (* (- 1) 1) (* 1 N ) (* (- 1) k ) ) 0) (>= (+ (* 1 N c_8 ) (* 1 c_10 j ) (* 1 c_11 k ) (* 1 c_12 m ) (* 1 c_13 n ) (* 1 c_7 ) (* 1 c_9 i ) ) 0) (>= (+ (* 1 N c_15 ) (* 1 c_14 ) (* 1 c_16 i ) (* 1 c_17 j ) (* 1 c_18 k ) (* 1 c_19 m ) (* 1 c_20 n ) ) 0) ) (>= (+ (* 1 N c_29 ) (* 1 c_28 ) (* 1 c_30 i ) (* 1 c_31 j ) (* 1 c_32 ) (* 1 c_32 k ) (* 1 c_33 m ) (* 1 c_34 n ) ) 0) )))
(assert (forall ((i Real) (j Real) (k Real) (m Real) (N Real) (n Real) ) (=> (and (>= (+ (* (- 1) 1) (* (- 1) N c_8 ) (* (- 1) c_10 j ) (* (- 1) c_11 ) (* (- 1) c_11 k ) (* (- 1) c_12 m ) (* (- 1) c_13 n ) (* (- 1) c_7 ) (* (- 1) c_9 i ) ) 0) (>= (+ (* (- 1) 1) (* 1 N ) (* (- 1) k ) ) 0) (>= (+ (* 1 N c_22 ) (* 1 c_21 ) (* 1 c_23 i ) (* 1 c_24 j ) (* 1 c_25 k ) (* 1 c_26 m ) (* 1 c_27 n ) ) 0) (>= (+ (* 1 N c_29 ) (* 1 c_28 ) (* 1 c_30 i ) (* 1 c_31 j ) (* 1 c_32 k ) (* 1 c_33 m ) (* 1 c_34 n ) ) 0) ) (>= (+ (* 1 N c_22 ) (* 1 c_21 ) (* 1 c_23 i ) (* 1 c_24 j ) (* 1 c_25 ) (* 1 c_25 k ) (* 1 c_26 m ) (* 1 c_27 n ) ) 0) )))
(assert (forall ((i Real) (j Real) (k Real) (m Real) (N Real) (n Real) ) (=> (and (>= (+ (* (- 1) 1) (* (- 1) N c_8 ) (* (- 1) c_10 j ) (* (- 1) c_11 ) (* (- 1) c_11 k ) (* (- 1) c_12 m ) (* (- 1) c_13 n ) (* (- 1) c_7 ) (* (- 1) c_9 i ) ) 0) (>= (+ (* (- 1) 1) (* 1 N ) (* (- 1) k ) ) 0) (>= (+ (* 1 N c_22 ) (* 1 c_21 ) (* 1 c_23 i ) (* 1 c_24 j ) (* 1 c_25 k ) (* 1 c_26 m ) (* 1 c_27 n ) ) 0) (>= (+ (* 1 N c_29 ) (* 1 c_28 ) (* 1 c_30 i ) (* 1 c_31 j ) (* 1 c_32 k ) (* 1 c_33 m ) (* 1 c_34 n ) ) 0) ) (>= (+ (* 1 N c_29 ) (* 1 c_28 ) (* 1 c_30 i ) (* 1 c_31 j ) (* 1 c_32 ) (* 1 c_32 k ) (* 1 c_33 m ) (* 1 c_34 n ) ) 0) )))
(assert (forall ((i Real) (j Real) (k Real) (m Real) (N Real) (n Real) ) (=> (and (>= (+ (* (- 1) 1) (* (- 1) N c_15 ) (* (- 1) c_14 ) (* (- 1) c_16 i ) (* (- 1) c_17 j ) (* (- 1) c_18 ) (* (- 1) c_18 k ) (* (- 1) c_19 m ) (* (- 1) c_20 n ) ) 0) (>= (+ (* (- 1) 1) (* 1 N ) (* (- 1) k ) ) 0) (>= (+ (* 1 N c_22 ) (* 1 c_21 ) (* 1 c_23 i ) (* 1 c_24 j ) (* 1 c_25 k ) (* 1 c_26 m ) (* 1 c_27 n ) ) 0) (>= (+ (* 1 N c_29 ) (* 1 c_28 ) (* 1 c_30 i ) (* 1 c_31 j ) (* 1 c_32 k ) (* 1 c_33 m ) (* 1 c_34 n ) ) 0) ) (>= (+ (* 1 N c_22 ) (* 1 c_21 ) (* 1 c_23 i ) (* 1 c_24 j ) (* 1 c_25 ) (* 1 c_25 k ) (* 1 c_26 m ) (* 1 c_27 n ) ) 0) )))
(assert (forall ((i Real) (j Real) (k Real) (m Real) (N Real) (n Real) ) (=> (and (>= (+ (* (- 1) 1) (* (- 1) N c_15 ) (* (- 1) c_14 ) (* (- 1) c_16 i ) (* (- 1) c_17 j ) (* (- 1) c_18 ) (* (- 1) c_18 k ) (* (- 1) c_19 m ) (* (- 1) c_20 n ) ) 0) (>= (+ (* (- 1) 1) (* 1 N ) (* (- 1) k ) ) 0) (>= (+ (* 1 N c_22 ) (* 1 c_21 ) (* 1 c_23 i ) (* 1 c_24 j ) (* 1 c_25 k ) (* 1 c_26 m ) (* 1 c_27 n ) ) 0) (>= (+ (* 1 N c_29 ) (* 1 c_28 ) (* 1 c_30 i ) (* 1 c_31 j ) (* 1 c_32 k ) (* 1 c_33 m ) (* 1 c_34 n ) ) 0) ) (>= (+ (* 1 N c_29 ) (* 1 c_28 ) (* 1 c_30 i ) (* 1 c_31 j ) (* 1 c_32 ) (* 1 c_32 k ) (* 1 c_33 m ) (* 1 c_34 n ) ) 0) )))
(assert (forall ((i Real) (j Real) (k Real) (m Real) (N Real) (n Real) ) (=> (and (>= (+ (* (- 1) 1) (* (- 1) N c_36 ) (* (- 1) c_35 ) (* (- 1) c_37 k ) (* (- 1) c_38 j ) (* (- 1) c_39 k ) (* (- 1) c_40 m ) (* (- 1) c_41 n ) ) 0) (>= (+ (* (- 1) N ) (* 1 k ) ) 0) (>= (+ (* 1 N c_8 ) (* 1 c_10 j ) (* 1 c_11 k ) (* 1 c_12 m ) (* 1 c_13 n ) (* 1 c_7 ) (* 1 c_9 i ) ) 0) (>= (+ (* 1 N c_15 ) (* 1 c_14 ) (* 1 c_16 i ) (* 1 c_17 j ) (* 1 c_18 k ) (* 1 c_19 m ) (* 1 c_20 n ) ) 0) ) (>= (+ (* 1 N c_50 ) (* 1 c_49 ) (* 1 c_51 k ) (* 1 c_52 j ) (* 1 c_53 k ) (* 1 c_54 m ) (* 1 c_55 n ) ) 0) )))
(assert (forall ((i Real) (j Real) (k Real) (m Real) (N Real) (n Real) ) (=> (and (>= (+ (* (- 1) 1) (* (- 1) N c_36 ) (* (- 1) c_35 ) (* (- 1) c_37 k ) (* (- 1) c_38 j ) (* (- 1) c_39 k ) (* (- 1) c_40 m ) (* (- 1) c_41 n ) ) 0) (>= (+ (* (- 1) N ) (* 1 k ) ) 0) (>= (+ (* 1 N c_8 ) (* 1 c_10 j ) (* 1 c_11 k ) (* 1 c_12 m ) (* 1 c_13 n ) (* 1 c_7 ) (* 1 c_9 i ) ) 0) (>= (+ (* 1 N c_15 ) (* 1 c_14 ) (* 1 c_16 i ) (* 1 c_17 j ) (* 1 c_18 k ) (* 1 c_19 m ) (* 1 c_20 n ) ) 0) ) (>= (+ (* 1 N c_57 ) (* 1 c_56 ) (* 1 c_58 k ) (* 1 c_59 j ) (* 1 c_60 k ) (* 1 c_61 m ) (* 1 c_62 n ) ) 0) )))
(assert (forall ((i Real) (j Real) (k Real) (m Real) (N Real) (n Real) ) (=> (and (>= (+ (* (- 1) 1) (* (- 1) N c_43 ) (* (- 1) c_42 ) (* (- 1) c_44 k ) (* (- 1) c_45 j ) (* (- 1) c_46 k ) (* (- 1) c_47 m ) (* (- 1) c_48 n ) ) 0) (>= (+ (* (- 1) N ) (* 1 k ) ) 0) (>= (+ (* 1 N c_8 ) (* 1 c_10 j ) (* 1 c_11 k ) (* 1 c_12 m ) (* 1 c_13 n ) (* 1 c_7 ) (* 1 c_9 i ) ) 0) (>= (+ (* 1 N c_15 ) (* 1 c_14 ) (* 1 c_16 i ) (* 1 c_17 j ) (* 1 c_18 k ) (* 1 c_19 m ) (* 1 c_20 n ) ) 0) ) (>= (+ (* 1 N c_50 ) (* 1 c_49 ) (* 1 c_51 k ) (* 1 c_52 j ) (* 1 c_53 k ) (* 1 c_54 m ) (* 1 c_55 n ) ) 0) )))
(assert (forall ((i Real) (j Real) (k Real) (m Real) (N Real) (n Real) ) (=> (and (>= (+ (* (- 1) 1) (* (- 1) N c_43 ) (* (- 1) c_42 ) (* (- 1) c_44 k ) (* (- 1) c_45 j ) (* (- 1) c_46 k ) (* (- 1) c_47 m ) (* (- 1) c_48 n ) ) 0) (>= (+ (* (- 1) N ) (* 1 k ) ) 0) (>= (+ (* 1 N c_8 ) (* 1 c_10 j ) (* 1 c_11 k ) (* 1 c_12 m ) (* 1 c_13 n ) (* 1 c_7 ) (* 1 c_9 i ) ) 0) (>= (+ (* 1 N c_15 ) (* 1 c_14 ) (* 1 c_16 i ) (* 1 c_17 j ) (* 1 c_18 k ) (* 1 c_19 m ) (* 1 c_20 n ) ) 0) ) (>= (+ (* 1 N c_57 ) (* 1 c_56 ) (* 1 c_58 k ) (* 1 c_59 j ) (* 1 c_60 k ) (* 1 c_61 m ) (* 1 c_62 n ) ) 0) )))
(assert (forall ((i Real) (j Real) (k Real) (m Real) (N Real) (n Real) ) (=> (and (>= (+ (* (- 1) 1) (* (- 1) N c_36 ) (* (- 1) c_35 ) (* (- 1) c_37 k ) (* (- 1) c_38 j ) (* (- 1) c_39 k ) (* (- 1) c_40 m ) (* (- 1) c_41 n ) ) 0) (>= (+ (* (- 1) N ) (* 1 k ) ) 0) (>= (+ (* 1 N c_22 ) (* 1 c_21 ) (* 1 c_23 i ) (* 1 c_24 j ) (* 1 c_25 k ) (* 1 c_26 m ) (* 1 c_27 n ) ) 0) (>= (+ (* 1 N c_29 ) (* 1 c_28 ) (* 1 c_30 i ) (* 1 c_31 j ) (* 1 c_32 k ) (* 1 c_33 m ) (* 1 c_34 n ) ) 0) ) (>= (+ (* 1 N c_50 ) (* 1 c_49 ) (* 1 c_51 k ) (* 1 c_52 j ) (* 1 c_53 k ) (* 1 c_54 m ) (* 1 c_55 n ) ) 0) )))
(assert (forall ((i Real) (j Real) (k Real) (m Real) (N Real) (n Real) ) (=> (and (>= (+ (* (- 1) 1) (* (- 1) N c_36 ) (* (- 1) c_35 ) (* (- 1) c_37 k ) (* (- 1) c_38 j ) (* (- 1) c_39 k ) (* (- 1) c_40 m ) (* (- 1) c_41 n ) ) 0) (>= (+ (* (- 1) N ) (* 1 k ) ) 0) (>= (+ (* 1 N c_22 ) (* 1 c_21 ) (* 1 c_23 i ) (* 1 c_24 j ) (* 1 c_25 k ) (* 1 c_26 m ) (* 1 c_27 n ) ) 0) (>= (+ (* 1 N c_29 ) (* 1 c_28 ) (* 1 c_30 i ) (* 1 c_31 j ) (* 1 c_32 k ) (* 1 c_33 m ) (* 1 c_34 n ) ) 0) ) (>= (+ (* 1 N c_57 ) (* 1 c_56 ) (* 1 c_58 k ) (* 1 c_59 j ) (* 1 c_60 k ) (* 1 c_61 m ) (* 1 c_62 n ) ) 0) )))
(assert (forall ((i Real) (j Real) (k Real) (m Real) (N Real) (n Real) ) (=> (and (>= (+ (* (- 1) 1) (* (- 1) N c_43 ) (* (- 1) c_42 ) (* (- 1) c_44 k ) (* (- 1) c_45 j ) (* (- 1) c_46 k ) (* (- 1) c_47 m ) (* (- 1) c_48 n ) ) 0) (>= (+ (* (- 1) N ) (* 1 k ) ) 0) (>= (+ (* 1 N c_22 ) (* 1 c_21 ) (* 1 c_23 i ) (* 1 c_24 j ) (* 1 c_25 k ) (* 1 c_26 m ) (* 1 c_27 n ) ) 0) (>= (+ (* 1 N c_29 ) (* 1 c_28 ) (* 1 c_30 i ) (* 1 c_31 j ) (* 1 c_32 k ) (* 1 c_33 m ) (* 1 c_34 n ) ) 0) ) (>= (+ (* 1 N c_50 ) (* 1 c_49 ) (* 1 c_51 k ) (* 1 c_52 j ) (* 1 c_53 k ) (* 1 c_54 m ) (* 1 c_55 n ) ) 0) )))
(assert (forall ((i Real) (j Real) (k Real) (m Real) (N Real) (n Real) ) (=> (and (>= (+ (* (- 1) 1) (* (- 1) N c_43 ) (* (- 1) c_42 ) (* (- 1) c_44 k ) (* (- 1) c_45 j ) (* (- 1) c_46 k ) (* (- 1) c_47 m ) (* (- 1) c_48 n ) ) 0) (>= (+ (* (- 1) N ) (* 1 k ) ) 0) (>= (+ (* 1 N c_22 ) (* 1 c_21 ) (* 1 c_23 i ) (* 1 c_24 j ) (* 1 c_25 k ) (* 1 c_26 m ) (* 1 c_27 n ) ) 0) (>= (+ (* 1 N c_29 ) (* 1 c_28 ) (* 1 c_30 i ) (* 1 c_31 j ) (* 1 c_32 k ) (* 1 c_33 m ) (* 1 c_34 n ) ) 0) ) (>= (+ (* 1 N c_57 ) (* 1 c_56 ) (* 1 c_58 k ) (* 1 c_59 j ) (* 1 c_60 k ) (* 1 c_61 m ) (* 1 c_62 n ) ) 0) )))
(assert (forall ((i Real) (j Real) (k Real) (m Real) (N Real) (n Real) ) (=> (and (>= (+ (* (- 1) 1) (* (- 1) N c_8 ) (* (- 1) c_10 ) (* (- 1) c_10 j ) (* (- 1) c_11 i ) (* (- 1) c_12 m ) (* (- 1) c_13 n ) (* (- 1) c_7 ) (* (- 1) c_9 i ) ) 0) (>= (+ (* (- 1) 1) (* (- 1) j ) (* 1 m ) ) 0) (>= (+ (* 1 N c_36 ) (* 1 c_35 ) (* 1 c_37 i ) (* 1 c_38 j ) (* 1 c_39 k ) (* 1 c_40 m ) (* 1 c_41 n ) ) 0) (>= (+ (* 1 N c_43 ) (* 1 c_42 ) (* 1 c_44 i ) (* 1 c_45 j ) (* 1 c_46 k ) (* 1 c_47 m ) (* 1 c_48 n ) ) 0) ) (>= (+ (* 1 N c_22 ) (* 1 c_21 ) (* 1 c_23 i ) (* 1 c_24 ) (* 1 c_24 j ) (* 1 c_25 i ) (* 1 c_26 m ) (* 1 c_27 n ) ) 0) )))
(assert (forall ((i Real) (j Real) (k Real) (m Real) (N Real) (n Real) ) (=> (and (>= (+ (* (- 1) 1) (* (- 1) N c_8 ) (* (- 1) c_10 ) (* (- 1) c_10 j ) (* (- 1) c_11 i ) (* (- 1) c_12 m ) (* (- 1) c_13 n ) (* (- 1) c_7 ) (* (- 1) c_9 i ) ) 0) (>= (+ (* (- 1) 1) (* (- 1) j ) (* 1 m ) ) 0) (>= (+ (* 1 N c_36 ) (* 1 c_35 ) (* 1 c_37 i ) (* 1 c_38 j ) (* 1 c_39 k ) (* 1 c_40 m ) (* 1 c_41 n ) ) 0) (>= (+ (* 1 N c_43 ) (* 1 c_42 ) (* 1 c_44 i ) (* 1 c_45 j ) (* 1 c_46 k ) (* 1 c_47 m ) (* 1 c_48 n ) ) 0) ) (>= (+ (* 1 N c_29 ) (* 1 c_28 ) (* 1 c_30 i ) (* 1 c_31 ) (* 1 c_31 j ) (* 1 c_32 i ) (* 1 c_33 m ) (* 1 c_34 n ) ) 0) )))
(assert (forall ((i Real) (j Real) (k Real) (m Real) (N Real) (n Real) ) (=> (and (>= (+ (* (- 1) 1) (* (- 1) N c_15 ) (* (- 1) c_14 ) (* (- 1) c_16 i ) (* (- 1) c_17 ) (* (- 1) c_17 j ) (* (- 1) c_18 i ) (* (- 1) c_19 m ) (* (- 1) c_20 n ) ) 0) (>= (+ (* (- 1) 1) (* (- 1) j ) (* 1 m ) ) 0) (>= (+ (* 1 N c_36 ) (* 1 c_35 ) (* 1 c_37 i ) (* 1 c_38 j ) (* 1 c_39 k ) (* 1 c_40 m ) (* 1 c_41 n ) ) 0) (>= (+ (* 1 N c_43 ) (* 1 c_42 ) (* 1 c_44 i ) (* 1 c_45 j ) (* 1 c_46 k ) (* 1 c_47 m ) (* 1 c_48 n ) ) 0) ) (>= (+ (* 1 N c_22 ) (* 1 c_21 ) (* 1 c_23 i ) (* 1 c_24 ) (* 1 c_24 j ) (* 1 c_25 i ) (* 1 c_26 m ) (* 1 c_27 n ) ) 0) )))
(assert (forall ((i Real) (j Real) (k Real) (m Real) (N Real) (n Real) ) (=> (and (>= (+ (* (- 1) 1) (* (- 1) N c_15 ) (* (- 1) c_14 ) (* (- 1) c_16 i ) (* (- 1) c_17 ) (* (- 1) c_17 j ) (* (- 1) c_18 i ) (* (- 1) c_19 m ) (* (- 1) c_20 n ) ) 0) (>= (+ (* (- 1) 1) (* (- 1) j ) (* 1 m ) ) 0) (>= (+ (* 1 N c_36 ) (* 1 c_35 ) (* 1 c_37 i ) (* 1 c_38 j ) (* 1 c_39 k ) (* 1 c_40 m ) (* 1 c_41 n ) ) 0) (>= (+ (* 1 N c_43 ) (* 1 c_42 ) (* 1 c_44 i ) (* 1 c_45 j ) (* 1 c_46 k ) (* 1 c_47 m ) (* 1 c_48 n ) ) 0) ) (>= (+ (* 1 N c_29 ) (* 1 c_28 ) (* 1 c_30 i ) (* 1 c_31 ) (* 1 c_31 j ) (* 1 c_32 i ) (* 1 c_33 m ) (* 1 c_34 n ) ) 0) )))
(assert (forall ((i Real) (j Real) (k Real) (m Real) (N Real) (n Real) ) (=> (and (>= (+ (* (- 1) 1) (* (- 1) N c_8 ) (* (- 1) c_10 ) (* (- 1) c_10 j ) (* (- 1) c_11 i ) (* (- 1) c_12 m ) (* (- 1) c_13 n ) (* (- 1) c_7 ) (* (- 1) c_9 i ) ) 0) (>= (+ (* (- 1) 1) (* (- 1) j ) (* 1 m ) ) 0) (>= (+ (* 1 N c_50 ) (* 1 c_49 ) (* 1 c_51 i ) (* 1 c_52 j ) (* 1 c_53 k ) (* 1 c_54 m ) (* 1 c_55 n ) ) 0) (>= (+ (* 1 N c_57 ) (* 1 c_56 ) (* 1 c_58 i ) (* 1 c_59 j ) (* 1 c_60 k ) (* 1 c_61 m ) (* 1 c_62 n ) ) 0) ) (>= (+ (* 1 N c_22 ) (* 1 c_21 ) (* 1 c_23 i ) (* 1 c_24 ) (* 1 c_24 j ) (* 1 c_25 i ) (* 1 c_26 m ) (* 1 c_27 n ) ) 0) )))
(assert (forall ((i Real) (j Real) (k Real) (m Real) (N Real) (n Real) ) (=> (and (>= (+ (* (- 1) 1) (* (- 1) N c_8 ) (* (- 1) c_10 ) (* (- 1) c_10 j ) (* (- 1) c_11 i ) (* (- 1) c_12 m ) (* (- 1) c_13 n ) (* (- 1) c_7 ) (* (- 1) c_9 i ) ) 0) (>= (+ (* (- 1) 1) (* (- 1) j ) (* 1 m ) ) 0) (>= (+ (* 1 N c_50 ) (* 1 c_49 ) (* 1 c_51 i ) (* 1 c_52 j ) (* 1 c_53 k ) (* 1 c_54 m ) (* 1 c_55 n ) ) 0) (>= (+ (* 1 N c_57 ) (* 1 c_56 ) (* 1 c_58 i ) (* 1 c_59 j ) (* 1 c_60 k ) (* 1 c_61 m ) (* 1 c_62 n ) ) 0) ) (>= (+ (* 1 N c_29 ) (* 1 c_28 ) (* 1 c_30 i ) (* 1 c_31 ) (* 1 c_31 j ) (* 1 c_32 i ) (* 1 c_33 m ) (* 1 c_34 n ) ) 0) )))
(assert (forall ((i Real) (j Real) (k Real) (m Real) (N Real) (n Real) ) (=> (and (>= (+ (* (- 1) 1) (* (- 1) N c_15 ) (* (- 1) c_14 ) (* (- 1) c_16 i ) (* (- 1) c_17 ) (* (- 1) c_17 j ) (* (- 1) c_18 i ) (* (- 1) c_19 m ) (* (- 1) c_20 n ) ) 0) (>= (+ (* (- 1) 1) (* (- 1) j ) (* 1 m ) ) 0) (>= (+ (* 1 N c_50 ) (* 1 c_49 ) (* 1 c_51 i ) (* 1 c_52 j ) (* 1 c_53 k ) (* 1 c_54 m ) (* 1 c_55 n ) ) 0) (>= (+ (* 1 N c_57 ) (* 1 c_56 ) (* 1 c_58 i ) (* 1 c_59 j ) (* 1 c_60 k ) (* 1 c_61 m ) (* 1 c_62 n ) ) 0) ) (>= (+ (* 1 N c_22 ) (* 1 c_21 ) (* 1 c_23 i ) (* 1 c_24 ) (* 1 c_24 j ) (* 1 c_25 i ) (* 1 c_26 m ) (* 1 c_27 n ) ) 0) )))
(assert (forall ((i Real) (j Real) (k Real) (m Real) (N Real) (n Real) ) (=> (and (>= (+ (* (- 1) 1) (* (- 1) N c_15 ) (* (- 1) c_14 ) (* (- 1) c_16 i ) (* (- 1) c_17 ) (* (- 1) c_17 j ) (* (- 1) c_18 i ) (* (- 1) c_19 m ) (* (- 1) c_20 n ) ) 0) (>= (+ (* (- 1) 1) (* (- 1) j ) (* 1 m ) ) 0) (>= (+ (* 1 N c_50 ) (* 1 c_49 ) (* 1 c_51 i ) (* 1 c_52 j ) (* 1 c_53 k ) (* 1 c_54 m ) (* 1 c_55 n ) ) 0) (>= (+ (* 1 N c_57 ) (* 1 c_56 ) (* 1 c_58 i ) (* 1 c_59 j ) (* 1 c_60 k ) (* 1 c_61 m ) (* 1 c_62 n ) ) 0) ) (>= (+ (* 1 N c_29 ) (* 1 c_28 ) (* 1 c_30 i ) (* 1 c_31 ) (* 1 c_31 j ) (* 1 c_32 i ) (* 1 c_33 m ) (* 1 c_34 n ) ) 0) )))
(assert (forall ((i Real) (j Real) (k Real) (m Real) (N Real) (n Real) ) (=> (and (>= (+ (* (- 1) 1) (* (- 1) N c_64 ) (* (- 1) c_63 ) (* (- 1) c_65 ) (* (- 1) c_65 i ) (* (- 1) c_66 j ) (* (- 1) c_67 k ) (* (- 1) c_68 m ) (* (- 1) c_69 n ) ) 0) (>= (+ (* 1 j ) (* (- 1) m ) ) 0) (>= (+ (* 1 N c_36 ) (* 1 c_35 ) (* 1 c_37 i ) (* 1 c_38 j ) (* 1 c_39 k ) (* 1 c_40 m ) (* 1 c_41 n ) ) 0) (>= (+ (* 1 N c_43 ) (* 1 c_42 ) (* 1 c_44 i ) (* 1 c_45 j ) (* 1 c_46 k ) (* 1 c_47 m ) (* 1 c_48 n ) ) 0) ) (>= (+ (* 1 N c_78 ) (* 1 c_77 ) (* 1 c_79 ) (* 1 c_79 i ) (* 1 c_80 j ) (* 1 c_81 k ) (* 1 c_82 m ) (* 1 c_83 n ) ) 0) )))
(assert (forall ((i Real) (j Real) (k Real) (m Real) (N Real) (n Real) ) (=> (and (>= (+ (* (- 1) 1) (* (- 1) N c_64 ) (* (- 1) c_63 ) (* (- 1) c_65 ) (* (- 1) c_65 i ) (* (- 1) c_66 j ) (* (- 1) c_67 k ) (* (- 1) c_68 m ) (* (- 1) c_69 n ) ) 0) (>= (+ (* 1 j ) (* (- 1) m ) ) 0) (>= (+ (* 1 N c_36 ) (* 1 c_35 ) (* 1 c_37 i ) (* 1 c_38 j ) (* 1 c_39 k ) (* 1 c_40 m ) (* 1 c_41 n ) ) 0) (>= (+ (* 1 N c_43 ) (* 1 c_42 ) (* 1 c_44 i ) (* 1 c_45 j ) (* 1 c_46 k ) (* 1 c_47 m ) (* 1 c_48 n ) ) 0) ) (>= (+ (* 1 N c_85 ) (* 1 c_84 ) (* 1 c_86 ) (* 1 c_86 i ) (* 1 c_87 j ) (* 1 c_88 k ) (* 1 c_89 m ) (* 1 c_90 n ) ) 0) )))
(assert (forall ((i Real) (j Real) (k Real) (m Real) (N Real) (n Real) ) (=> (and (>= (+ (* (- 1) 1) (* (- 1) N c_71 ) (* (- 1) c_70 ) (* (- 1) c_72 ) (* (- 1) c_72 i ) (* (- 1) c_73 j ) (* (- 1) c_74 k ) (* (- 1) c_75 m ) (* (- 1) c_76 n ) ) 0) (>= (+ (* 1 j ) (* (- 1) m ) ) 0) (>= (+ (* 1 N c_36 ) (* 1 c_35 ) (* 1 c_37 i ) (* 1 c_38 j ) (* 1 c_39 k ) (* 1 c_40 m ) (* 1 c_41 n ) ) 0) (>= (+ (* 1 N c_43 ) (* 1 c_42 ) (* 1 c_44 i ) (* 1 c_45 j ) (* 1 c_46 k ) (* 1 c_47 m ) (* 1 c_48 n ) ) 0) ) (>= (+ (* 1 N c_78 ) (* 1 c_77 ) (* 1 c_79 ) (* 1 c_79 i ) (* 1 c_80 j ) (* 1 c_81 k ) (* 1 c_82 m ) (* 1 c_83 n ) ) 0) )))
(assert (forall ((i Real) (j Real) (k Real) (m Real) (N Real) (n Real) ) (=> (and (>= (+ (* (- 1) 1) (* (- 1) N c_71 ) (* (- 1) c_70 ) (* (- 1) c_72 ) (* (- 1) c_72 i ) (* (- 1) c_73 j ) (* (- 1) c_74 k ) (* (- 1) c_75 m ) (* (- 1) c_76 n ) ) 0) (>= (+ (* 1 j ) (* (- 1) m ) ) 0) (>= (+ (* 1 N c_36 ) (* 1 c_35 ) (* 1 c_37 i ) (* 1 c_38 j ) (* 1 c_39 k ) (* 1 c_40 m ) (* 1 c_41 n ) ) 0) (>= (+ (* 1 N c_43 ) (* 1 c_42 ) (* 1 c_44 i ) (* 1 c_45 j ) (* 1 c_46 k ) (* 1 c_47 m ) (* 1 c_48 n ) ) 0) ) (>= (+ (* 1 N c_85 ) (* 1 c_84 ) (* 1 c_86 ) (* 1 c_86 i ) (* 1 c_87 j ) (* 1 c_88 k ) (* 1 c_89 m ) (* 1 c_90 n ) ) 0) )))
(assert (forall ((i Real) (j Real) (k Real) (m Real) (N Real) (n Real) ) (=> (and (>= (+ (* (- 1) 1) (* (- 1) N c_64 ) (* (- 1) c_63 ) (* (- 1) c_65 ) (* (- 1) c_65 i ) (* (- 1) c_66 j ) (* (- 1) c_67 k ) (* (- 1) c_68 m ) (* (- 1) c_69 n ) ) 0) (>= (+ (* 1 j ) (* (- 1) m ) ) 0) (>= (+ (* 1 N c_50 ) (* 1 c_49 ) (* 1 c_51 i ) (* 1 c_52 j ) (* 1 c_53 k ) (* 1 c_54 m ) (* 1 c_55 n ) ) 0) (>= (+ (* 1 N c_57 ) (* 1 c_56 ) (* 1 c_58 i ) (* 1 c_59 j ) (* 1 c_60 k ) (* 1 c_61 m ) (* 1 c_62 n ) ) 0) ) (>= (+ (* 1 N c_78 ) (* 1 c_77 ) (* 1 c_79 ) (* 1 c_79 i ) (* 1 c_80 j ) (* 1 c_81 k ) (* 1 c_82 m ) (* 1 c_83 n ) ) 0) )))
(assert (forall ((i Real) (j Real) (k Real) (m Real) (N Real) (n Real) ) (=> (and (>= (+ (* (- 1) 1) (* (- 1) N c_64 ) (* (- 1) c_63 ) (* (- 1) c_65 ) (* (- 1) c_65 i ) (* (- 1) c_66 j ) (* (- 1) c_67 k ) (* (- 1) c_68 m ) (* (- 1) c_69 n ) ) 0) (>= (+ (* 1 j ) (* (- 1) m ) ) 0) (>= (+ (* 1 N c_50 ) (* 1 c_49 ) (* 1 c_51 i ) (* 1 c_52 j ) (* 1 c_53 k ) (* 1 c_54 m ) (* 1 c_55 n ) ) 0) (>= (+ (* 1 N c_57 ) (* 1 c_56 ) (* 1 c_58 i ) (* 1 c_59 j ) (* 1 c_60 k ) (* 1 c_61 m ) (* 1 c_62 n ) ) 0) ) (>= (+ (* 1 N c_85 ) (* 1 c_84 ) (* 1 c_86 ) (* 1 c_86 i ) (* 1 c_87 j ) (* 1 c_88 k ) (* 1 c_89 m ) (* 1 c_90 n ) ) 0) )))
(assert (forall ((i Real) (j Real) (k Real) (m Real) (N Real) (n Real) ) (=> (and (>= (+ (* (- 1) 1) (* (- 1) N c_71 ) (* (- 1) c_70 ) (* (- 1) c_72 ) (* (- 1) c_72 i ) (* (- 1) c_73 j ) (* (- 1) c_74 k ) (* (- 1) c_75 m ) (* (- 1) c_76 n ) ) 0) (>= (+ (* 1 j ) (* (- 1) m ) ) 0) (>= (+ (* 1 N c_50 ) (* 1 c_49 ) (* 1 c_51 i ) (* 1 c_52 j ) (* 1 c_53 k ) (* 1 c_54 m ) (* 1 c_55 n ) ) 0) (>= (+ (* 1 N c_57 ) (* 1 c_56 ) (* 1 c_58 i ) (* 1 c_59 j ) (* 1 c_60 k ) (* 1 c_61 m ) (* 1 c_62 n ) ) 0) ) (>= (+ (* 1 N c_78 ) (* 1 c_77 ) (* 1 c_79 ) (* 1 c_79 i ) (* 1 c_80 j ) (* 1 c_81 k ) (* 1 c_82 m ) (* 1 c_83 n ) ) 0) )))
(assert (forall ((i Real) (j Real) (k Real) (m Real) (N Real) (n Real) ) (=> (and (>= (+ (* (- 1) 1) (* (- 1) N c_71 ) (* (- 1) c_70 ) (* (- 1) c_72 ) (* (- 1) c_72 i ) (* (- 1) c_73 j ) (* (- 1) c_74 k ) (* (- 1) c_75 m ) (* (- 1) c_76 n ) ) 0) (>= (+ (* 1 j ) (* (- 1) m ) ) 0) (>= (+ (* 1 N c_50 ) (* 1 c_49 ) (* 1 c_51 i ) (* 1 c_52 j ) (* 1 c_53 k ) (* 1 c_54 m ) (* 1 c_55 n ) ) 0) (>= (+ (* 1 N c_57 ) (* 1 c_56 ) (* 1 c_58 i ) (* 1 c_59 j ) (* 1 c_60 k ) (* 1 c_61 m ) (* 1 c_62 n ) ) 0) ) (>= (+ (* 1 N c_85 ) (* 1 c_84 ) (* 1 c_86 ) (* 1 c_86 i ) (* 1 c_87 j ) (* 1 c_88 k ) (* 1 c_89 m ) (* 1 c_90 n ) ) 0) )))
(assert (forall ((i Real) (j Real) (k Real) (m Real) (N Real) (n Real) ) (=> (and (>= (+ (* (- 1) 1) (* (- 1) N c_36 ) (* (- 1) c_35 ) (* (- 1) c_37 i ) (* (- 1) c_39 k ) (* (- 1) c_40 m ) (* (- 1) c_41 n ) ) 0) (>= (+ (* (- 1) 1) (* (- 1) i ) (* 1 n ) ) 0) (>= (+ (* 1 N c_64 ) (* 1 c_63 ) (* 1 c_65 i ) (* 1 c_66 j ) (* 1 c_67 k ) (* 1 c_68 m ) (* 1 c_69 n ) ) 0) (>= (+ (* 1 N c_71 ) (* 1 c_70 ) (* 1 c_72 i ) (* 1 c_73 j ) (* 1 c_74 k ) (* 1 c_75 m ) (* 1 c_76 n ) ) 0) ) (>= (+ (* 1 N c_50 ) (* 1 c_49 ) (* 1 c_51 i ) (* 1 c_53 k ) (* 1 c_54 m ) (* 1 c_55 n ) ) 0) )))
(assert (forall ((i Real) (j Real) (k Real) (m Real) (N Real) (n Real) ) (=> (and (>= (+ (* (- 1) 1) (* (- 1) N c_36 ) (* (- 1) c_35 ) (* (- 1) c_37 i ) (* (- 1) c_39 k ) (* (- 1) c_40 m ) (* (- 1) c_41 n ) ) 0) (>= (+ (* (- 1) 1) (* (- 1) i ) (* 1 n ) ) 0) (>= (+ (* 1 N c_64 ) (* 1 c_63 ) (* 1 c_65 i ) (* 1 c_66 j ) (* 1 c_67 k ) (* 1 c_68 m ) (* 1 c_69 n ) ) 0) (>= (+ (* 1 N c_71 ) (* 1 c_70 ) (* 1 c_72 i ) (* 1 c_73 j ) (* 1 c_74 k ) (* 1 c_75 m ) (* 1 c_76 n ) ) 0) ) (>= (+ (* 1 N c_57 ) (* 1 c_56 ) (* 1 c_58 i ) (* 1 c_60 k ) (* 1 c_61 m ) (* 1 c_62 n ) ) 0) )))
(assert (forall ((i Real) (j Real) (k Real) (m Real) (N Real) (n Real) ) (=> (and (>= (+ (* (- 1) 1) (* (- 1) N c_43 ) (* (- 1) c_42 ) (* (- 1) c_44 i ) (* (- 1) c_46 k ) (* (- 1) c_47 m ) (* (- 1) c_48 n ) ) 0) (>= (+ (* (- 1) 1) (* (- 1) i ) (* 1 n ) ) 0) (>= (+ (* 1 N c_64 ) (* 1 c_63 ) (* 1 c_65 i ) (* 1 c_66 j ) (* 1 c_67 k ) (* 1 c_68 m ) (* 1 c_69 n ) ) 0) (>= (+ (* 1 N c_71 ) (* 1 c_70 ) (* 1 c_72 i ) (* 1 c_73 j ) (* 1 c_74 k ) (* 1 c_75 m ) (* 1 c_76 n ) ) 0) ) (>= (+ (* 1 N c_50 ) (* 1 c_49 ) (* 1 c_51 i ) (* 1 c_53 k ) (* 1 c_54 m ) (* 1 c_55 n ) ) 0) )))
(assert (forall ((i Real) (j Real) (k Real) (m Real) (N Real) (n Real) ) (=> (and (>= (+ (* (- 1) 1) (* (- 1) N c_43 ) (* (- 1) c_42 ) (* (- 1) c_44 i ) (* (- 1) c_46 k ) (* (- 1) c_47 m ) (* (- 1) c_48 n ) ) 0) (>= (+ (* (- 1) 1) (* (- 1) i ) (* 1 n ) ) 0) (>= (+ (* 1 N c_64 ) (* 1 c_63 ) (* 1 c_65 i ) (* 1 c_66 j ) (* 1 c_67 k ) (* 1 c_68 m ) (* 1 c_69 n ) ) 0) (>= (+ (* 1 N c_71 ) (* 1 c_70 ) (* 1 c_72 i ) (* 1 c_73 j ) (* 1 c_74 k ) (* 1 c_75 m ) (* 1 c_76 n ) ) 0) ) (>= (+ (* 1 N c_57 ) (* 1 c_56 ) (* 1 c_58 i ) (* 1 c_60 k ) (* 1 c_61 m ) (* 1 c_62 n ) ) 0) )))
(assert (forall ((i Real) (j Real) (k Real) (m Real) (N Real) (n Real) ) (=> (and (>= (+ (* (- 1) 1) (* (- 1) N c_36 ) (* (- 1) c_35 ) (* (- 1) c_37 i ) (* (- 1) c_39 k ) (* (- 1) c_40 m ) (* (- 1) c_41 n ) ) 0) (>= (+ (* (- 1) 1) (* (- 1) i ) (* 1 n ) ) 0) (>= (+ (* 1 N c_78 ) (* 1 c_77 ) (* 1 c_79 i ) (* 1 c_80 j ) (* 1 c_81 k ) (* 1 c_82 m ) (* 1 c_83 n ) ) 0) (>= (+ (* 1 N c_85 ) (* 1 c_84 ) (* 1 c_86 i ) (* 1 c_87 j ) (* 1 c_88 k ) (* 1 c_89 m ) (* 1 c_90 n ) ) 0) ) (>= (+ (* 1 N c_50 ) (* 1 c_49 ) (* 1 c_51 i ) (* 1 c_53 k ) (* 1 c_54 m ) (* 1 c_55 n ) ) 0) )))
(assert (forall ((i Real) (j Real) (k Real) (m Real) (N Real) (n Real) ) (=> (and (>= (+ (* (- 1) 1) (* (- 1) N c_36 ) (* (- 1) c_35 ) (* (- 1) c_37 i ) (* (- 1) c_39 k ) (* (- 1) c_40 m ) (* (- 1) c_41 n ) ) 0) (>= (+ (* (- 1) 1) (* (- 1) i ) (* 1 n ) ) 0) (>= (+ (* 1 N c_78 ) (* 1 c_77 ) (* 1 c_79 i ) (* 1 c_80 j ) (* 1 c_81 k ) (* 1 c_82 m ) (* 1 c_83 n ) ) 0) (>= (+ (* 1 N c_85 ) (* 1 c_84 ) (* 1 c_86 i ) (* 1 c_87 j ) (* 1 c_88 k ) (* 1 c_89 m ) (* 1 c_90 n ) ) 0) ) (>= (+ (* 1 N c_57 ) (* 1 c_56 ) (* 1 c_58 i ) (* 1 c_60 k ) (* 1 c_61 m ) (* 1 c_62 n ) ) 0) )))
(assert (forall ((i Real) (j Real) (k Real) (m Real) (N Real) (n Real) ) (=> (and (>= (+ (* (- 1) 1) (* (- 1) N c_43 ) (* (- 1) c_42 ) (* (- 1) c_44 i ) (* (- 1) c_46 k ) (* (- 1) c_47 m ) (* (- 1) c_48 n ) ) 0) (>= (+ (* (- 1) 1) (* (- 1) i ) (* 1 n ) ) 0) (>= (+ (* 1 N c_78 ) (* 1 c_77 ) (* 1 c_79 i ) (* 1 c_80 j ) (* 1 c_81 k ) (* 1 c_82 m ) (* 1 c_83 n ) ) 0) (>= (+ (* 1 N c_85 ) (* 1 c_84 ) (* 1 c_86 i ) (* 1 c_87 j ) (* 1 c_88 k ) (* 1 c_89 m ) (* 1 c_90 n ) ) 0) ) (>= (+ (* 1 N c_50 ) (* 1 c_49 ) (* 1 c_51 i ) (* 1 c_53 k ) (* 1 c_54 m ) (* 1 c_55 n ) ) 0) )))
(assert (forall ((i Real) (j Real) (k Real) (m Real) (N Real) (n Real) ) (=> (and (>= (+ (* (- 1) 1) (* (- 1) N c_43 ) (* (- 1) c_42 ) (* (- 1) c_44 i ) (* (- 1) c_46 k ) (* (- 1) c_47 m ) (* (- 1) c_48 n ) ) 0) (>= (+ (* (- 1) 1) (* (- 1) i ) (* 1 n ) ) 0) (>= (+ (* 1 N c_78 ) (* 1 c_77 ) (* 1 c_79 i ) (* 1 c_80 j ) (* 1 c_81 k ) (* 1 c_82 m ) (* 1 c_83 n ) ) 0) (>= (+ (* 1 N c_85 ) (* 1 c_84 ) (* 1 c_86 i ) (* 1 c_87 j ) (* 1 c_88 k ) (* 1 c_89 m ) (* 1 c_90 n ) ) 0) ) (>= (+ (* 1 N c_57 ) (* 1 c_56 ) (* 1 c_58 i ) (* 1 c_60 k ) (* 1 c_61 m ) (* 1 c_62 n ) ) 0) )))
(assert (forall ((i Real) (j Real) (k Real) (m Real) (N Real) (n Real) ) (=> (and (>= (+ (* 1 i ) (* (- 1) n ) ) 0) (>= (+ (* 1 N c_64 ) (* 1 c_63 ) (* 1 c_65 i ) (* 1 c_66 j ) (* 1 c_67 k ) (* 1 c_68 m ) (* 1 c_69 n ) ) 0) (>= (+ (* 1 N c_71 ) (* 1 c_70 ) (* 1 c_72 i ) (* 1 c_73 j ) (* 1 c_74 k ) (* 1 c_75 m ) (* 1 c_76 n ) ) 0) ) (>= (* 1 c_0 ) 0) )))
(assert (forall ((i Real) (j Real) (k Real) (m Real) (N Real) (n Real) ) (=> (and (>= (+ (* 1 i ) (* (- 1) n ) ) 0) (>= (+ (* 1 N c_78 ) (* 1 c_77 ) (* 1 c_79 i ) (* 1 c_80 j ) (* 1 c_81 k ) (* 1 c_82 m ) (* 1 c_83 n ) ) 0) (>= (+ (* 1 N c_85 ) (* 1 c_84 ) (* 1 c_86 i ) (* 1 c_87 j ) (* 1 c_88 k ) (* 1 c_89 m ) (* 1 c_90 n ) ) 0) ) (>= (* 1 c_0 ) 0) )))
(check-sat)
(get-model)

